NAME : cp-n37-kk
COMMENT : (Claudio Procida)
TYPE : CVRP
DIMENSION : 37
EDGE_WEIGHT_TYPE : EUC_2D
CAPACITY : 120
NODE_COORD_SECTION
1 0  0
2 80 29
3 78 114
4 51 114
5 48 37
6 52 10
7 29 56
8 27 7
9 67 6
10 19 75
11 118 58
12 52 57
13 25 11
14 55 51
15 31 93
16 83 106
17 6 107
18 77 50
19 3 46
20 70 112
21 19 97
22 90 26
23 4 84
24 111 42
25 112 13
26 52 91
27 92 115
28 1 67
29 53 90
30 94 21
31 84 45
32 88 6
33 114 35
34 11 75
35 58 47
36 119 15
37 51 44
DEMAND_SECTION
1	0
2 9
3 16
4 3
5 7
6 37
7 25
8 25
9 15
10 28
11 3
12 36
13 12
14 38
15 48
16 49
17 13
18 38
19 5
20 7
21 19
22 27
23 8
24 7
25 17
26 45
27 15
28 14
29 6
30 27
31 13
32 8
33 39
34 2
35 38
36 38
37 26
DEPOT_SECTION
1
-1
EOF
